Version identifier: 20.1.0.0 | 2020-11-10 | 9bedb6d68
Tried aggregator 2 times.
MIP Presolve eliminated 1337 rows and 757 columns.
MIP Presolve modified 2618 coefficients.
Aggregator did 144 substitutions.
Reduced MIP has 1075 rows, 906 columns, and 3411 nonzeros.
Reduced MIP has 242 binaries, 664 generals, 0 SOSs, and 0 indicators.
Presolve time = 0.02 sec. (5.57 ticks)
Found incumbent of value 59.000000 after 0.02 sec. (9.65 ticks)
Probing fixed 30 vars, tightened 295 bounds.
Probing time = 0.00 sec. (1.13 ticks)
Tried aggregator 2 times.
Detecting symmetries...
MIP Presolve eliminated 450 rows and 62 columns.
MIP Presolve modified 99 coefficients.
Aggregator did 21 substitutions.
Reduced MIP has 604 rows, 823 columns, and 1968 nonzeros.
Reduced MIP has 303 binaries, 520 generals, 0 SOSs, and 0 indicators.
Presolve time = 0.01 sec. (3.00 ticks)
Probing time = 0.00 sec. (0.17 ticks)
Clique table members: 1.
MIP emphasis: balance optimality and feasibility.
MIP search method: dynamic search.
Parallel mode: deterministic, using up to 24 threads.
Root relaxation solution time = 0.00 sec. (1.89 ticks)

        Nodes                                         Cuts/
   Node  Left     Objective  IInf  Best Integer    Best Bound    ItCnt     Gap

*     0+    0                           59.0000        0.0000           100.00%
      0     0        0.0000    47       59.0000        0.0000      202  100.00%
      0     0        0.5000    86       59.0000     Cuts: 141      419   99.15%
*     0+    0                           22.0000        0.5000            97.73%
      0     0        1.7500   248       22.0000      Cuts: 71      502   92.05%
*     0+    0                           15.0000        1.7500            88.33%
      0     0        1.7500   191       15.0000      Cuts: 86      570   88.33%
      0     0        1.7500   257       15.0000      Cuts: 62      612   88.33%
      0     0        1.8125   186       15.0000      Cuts: 31      675   87.92%
      0     0        2.0000   204       15.0000      Cuts: 80      764   86.67%
      0     0        2.0982   199       15.0000      Cuts: 93      828   86.01%
      0     0        2.1250   208       15.0000      Cuts: 63      873   85.83%
      0     0        2.5000   208       15.0000      Cuts: 73      918   83.33%
      0     0        2.5238   231       15.0000      Cuts: 86      993   83.17%
*     0+    0                           14.0000        2.5238            81.97%
      0     0        cutoff             14.0000       14.0000     1093    0.00%
Elapsed time = 0.22 sec. (96.29 ticks, tree = 0.01 MB, solutions = 4)

Implied bound cuts applied:  16
Flow cuts applied:  2
Mixed integer rounding cuts applied:  26
Zero-half cuts applied:  184
Gomory fractional cuts applied:  12

Root node processing (before b&c):
  Real time             =    0.22 sec. (96.39 ticks)
Parallel b&c, 24 threads:
  Real time             =    0.00 sec. (0.00 ticks)
  Sync time (average)   =    0.00 sec.
  Wait time (average)   =    0.00 sec.
                          ------------
Total (root+branch&cut) =    0.22 sec. (96.39 ticks)

Solution status = Optimal
Solution LB = 14
Solution UB = 14
Runtime = 0.229863 seconds
	Command being timed: "/home/min/git_repos/CS598MEBProject/CNT-ILP/build/cnt -s 2 ./output/k6_n30/simC_c1_k6_n30_u3_s3_del04.input-right.cnp"
	User time (seconds): 2.10
	System time (seconds): 0.04
	Percent of CPU this job got: 861%
	Elapsed (wall clock) time (h:mm:ss or m:ss): 0:00.25
	Average shared text size (kbytes): 0
	Average unshared data size (kbytes): 0
	Average stack size (kbytes): 0
	Average total size (kbytes): 0
	Maximum resident set size (kbytes): 72372
	Average resident set size (kbytes): 0
	Major (requiring I/O) page faults: 0
	Minor (reclaiming a frame) page faults: 15149
	Voluntary context switches: 2742
	Involuntary context switches: 335
	Swaps: 0
	File system inputs: 0
	File system outputs: 16
	Socket messages sent: 0
	Socket messages received: 0
	Signals delivered: 0
	Page size (bytes): 4096
	Exit status: 0
